\ LP format - for model browsing. Use MPS format to capture full model detail.
\ Signature: 0x8991fe2470b265f8
Minimize
  - 0.0655573190666661 y[15,12] - 0.0893708484340394 y[15,13]
   - 0.0893708484340394 y[19,22] - 0.0893708484340394 y[23,22]
   - 0.0893708484340394 y[26,11] - 0.0965836728335032 y[29,15]
   - 0.0965836728335032 y[29,2] - 0.0965836728335032 y[33,15]
   - 0.1069043585612457 y[36,35] - 0.0965836728335032 y[36,15]
   - 0.1069043585612457 y[37,36] - 0.0965836728335032 y[37,15]
   - 0.1069043585612457 y[38,36] - 0.0965836728335032 y[38,15]
   - 0.1069043585612457 y[39,36] - 0.0965836728335032 y[39,15]
   - 0.0965836728335032 y[40,15] - 0.0965836728335032 y[41,15]
   - 0.0965836728335032 y[42,15] - 0.0965836728335032 y[43,11]
   - 0.0965836728335032 y[43,15] - 0.0965836728335032 y[43,12]
   - 0.0965836728335032 y[44,15] - 0.0965836728335032 y[45,11]
   - 0.0965836728335032 y[45,15] - 0.0965836728335032 y[45,12]
   - 0.0965836728335032 y[49,11] - 0.0965836728335032 y[50,15]
   - 0.0965836728335032 y[51,15] - 0.0965836728335032 y[54,15]
   - 0.0965836728335032 y[59,15] - 0.0965836728335032 y[59,11]
   - 0.0965836728335032 y[60,15] - 0.0965836728335032 y[60,11]
   - 0.0965836728335032 y[61,11] - 0.0965836728335032 y[61,15]
   - 0.0965836728335032 y[62,11] - 0.0965836728335032 y[62,15]
   - 0.0965836728335032 y[62,12] - 0.0965836728335032 y[63,12]
   - 0.0965836728335032 y[64,15] - 0.1069043585612457 y[65,66]
   - 0.0965836728335032 y[65,14] - 0.1069043585612457 y[69,56]
   - 0.1069043585612457 y[70,57] - 0.1069043585612457 y[71,58]
   - 0.1069043585612457 y[72,45] - 0.1069043585612457 y[72,38]
   - 0.0965836728335032 y[72,11] - 0.0965836728335032 y[72,22]
   - 0.0965836728335032 y[72,23] - 0.0965836728335032 y[72,19]
   - 0.0965836728335032 y[72,15] - 0.1069043585612457 y[73,46]
   - 0.0965836728335032 y[73,11] - 0.0965836728335032 y[73,15]
   - 0.0965836728335032 y[73,19] - 0.0965836728335032 y[73,23]
   - 0.1069043585612457 y[74,75] - 0.1069043585612457 y[74,49]
   - 0.0965836728335032 y[74,11] - 0.1069043585612457 y[76,53]
   - 0.1069043585612457 y[77,50] - 0.0965836728335032 y[77,11]
   - 0.1069043585612457 y[78,47] - 0.1069043585612457 y[79,87]
   - 0.1069043585612457 y[79,43] - 0.1069043585612457 y[79,37]
   - 0.0965836728335032 y[79,26] - 0.0965836728335032 y[79,21]
   - 0.0965836728335032 y[79,15] - 0.1069043585612457 y[80,40]
   - 0.0965836728335032 y[80,15] - 0.1069043585612457 y[82,51]
   - 0.0965836728335032 y[82,11] - 0.1069043585612457 y[83,46]
   - 0.0965836728335032 y[83,11] - 0.0965836728335032 y[83,15]
   - 0.0965836728335032 y[83,19] - 0.1069043585612457 y[84,87]
   - 0.1069043585612457 y[84,48] - 0.0965836728335032 y[84,10]
   - 0.0965836728335032 y[84,21] - 0.1069043585612457 y[85,42]
   - 0.1069043585612457 y[85,39] - 0.0965836728335032 y[85,15]
   - 0.1069043585612457 y[86,87] - 0.1069043585612457 y[86,41]
   - 0.0965836728335032 y[86,27] - 0.0965836728335032 y[86,21]
   - 0.0965836728335032 y[86,15] - 0.1069043585612457 y[88,32]
   - 0.0965836728335032 y[88,25] - 0.1069043585612457 y[89,65]
   - 0.6415838011045456 y[89,14] - 0.1069043585612457 y[90,67]
   - 0.1069043585612457 y[90,91] - 0.6415838011045456 y[90,14]
   + 10.82558448614848 Constant
Subject To
 (1)microservice-belonging[2]: x[2,0] = 1
 (1)microservice-belonging[10]: x[10,0] = 1
 (1)microservice-belonging[11]: x[11,0] = 1
 (1)microservice-belonging[12]: x[12,0] = 1
 (1)microservice-belonging[13]: x[13,0] = 1
 (1)microservice-belonging[14]: x[14,0] = 1
 (1)microservice-belonging[15]: x[15,0] = 1
 (1)microservice-belonging[19]: x[19,0] = 1
 (1)microservice-belonging[21]: x[21,0] = 1
 (1)microservice-belonging[22]: x[22,0] = 1
 (1)microservice-belonging[23]: x[23,0] = 1
 (1)microservice-belonging[25]: x[25,0] = 1
 (1)microservice-belonging[26]: x[26,0] = 1
 (1)microservice-belonging[27]: x[27,0] = 1
 (1)microservice-belonging[29]: x[29,0] = 1
 (1)microservice-belonging[32]: x[32,0] = 1
 (1)microservice-belonging[33]: x[33,0] = 1
 (1)microservice-belonging[35]: x[35,0] = 1
 (1)microservice-belonging[36]: x[36,0] = 1
 (1)microservice-belonging[37]: x[37,0] = 1
 (1)microservice-belonging[38]: x[38,0] = 1
 (1)microservice-belonging[39]: x[39,0] = 1
 (1)microservice-belonging[40]: x[40,0] = 1
 (1)microservice-belonging[41]: x[41,0] = 1
 (1)microservice-belonging[42]: x[42,0] = 1
 (1)microservice-belonging[43]: x[43,0] = 1
 (1)microservice-belonging[44]: x[44,0] = 1
 (1)microservice-belonging[45]: x[45,0] = 1
 (1)microservice-belonging[46]: x[46,0] = 1
 (1)microservice-belonging[47]: x[47,0] = 1
 (1)microservice-belonging[48]: x[48,0] = 1
 (1)microservice-belonging[49]: x[49,0] = 1
 (1)microservice-belonging[50]: x[50,0] = 1
 (1)microservice-belonging[51]: x[51,0] = 1
 (1)microservice-belonging[53]: x[53,0] = 1
 (1)microservice-belonging[54]: x[54,0] = 1
 (1)microservice-belonging[56]: x[56,0] = 1
 (1)microservice-belonging[57]: x[57,0] = 1
 (1)microservice-belonging[58]: x[58,0] = 1
 (1)microservice-belonging[59]: x[59,0] = 1
 (1)microservice-belonging[60]: x[60,0] = 1
 (1)microservice-belonging[61]: x[61,0] = 1
 (1)microservice-belonging[62]: x[62,0] = 1
 (1)microservice-belonging[63]: x[63,0] = 1
 (1)microservice-belonging[64]: x[64,0] = 1
 (1)microservice-belonging[65]: x[65,0] = 1
 (1)microservice-belonging[66]: x[66,0] = 1
 (1)microservice-belonging[67]: x[67,0] = 1
 (1)microservice-belonging[69]: x[69,0] = 1
 (1)microservice-belonging[70]: x[70,0] = 1
 (1)microservice-belonging[71]: x[71,0] = 1
 (1)microservice-belonging[72]: x[72,0] = 1
 (1)microservice-belonging[73]: x[73,0] = 1
 (1)microservice-belonging[74]: x[74,0] = 1
 (1)microservice-belonging[75]: x[75,0] = 1
 (1)microservice-belonging[76]: x[76,0] = 1
 (1)microservice-belonging[77]: x[77,0] = 1
 (1)microservice-belonging[78]: x[78,0] = 1
 (1)microservice-belonging[79]: x[79,0] = 1
 (1)microservice-belonging[80]: x[80,0] = 1
 (1)microservice-belonging[82]: x[82,0] = 1
 (1)microservice-belonging[83]: x[83,0] = 1
 (1)microservice-belonging[84]: x[84,0] = 1
 (1)microservice-belonging[85]: x[85,0] = 1
 (1)microservice-belonging[86]: x[86,0] = 1
 (1)microservice-belonging[87]: x[87,0] = 1
 (1)microservice-belonging[88]: x[88,0] = 1
 (1)microservice-belonging[89]: x[89,0] = 1
 (1)microservice-belonging[90]: x[90,0] = 1
 (1)microservice-belonging[91]: x[91,0] = 1
 (2)microservice-composition[0]: x[29,0] + x[32,0] + x[33,0] + x[35,0]
   + x[36,0] + x[37,0] + x[38,0] + x[39,0] + x[40,0] + x[41,0] + x[42,0]
   + x[43,0] + x[44,0] + x[45,0] + x[46,0] + x[47,0] + x[48,0] + x[49,0]
   + x[50,0] + x[51,0] + x[53,0] + x[54,0] + x[56,0] + x[57,0] + x[58,0]
   + x[59,0] + x[60,0] + x[61,0] + x[62,0] + x[63,0] + x[64,0] + x[65,0]
   + x[66,0] + x[67,0] + x[69,0] + x[70,0] + x[71,0] + x[72,0] + x[73,0]
   + x[74,0] + x[75,0] + x[76,0] + x[77,0] + x[78,0] + x[79,0] + x[80,0]
   + x[82,0] + x[83,0] + x[84,0] + x[85,0] + x[86,0] + x[87,0] + x[88,0]
   + x[89,0] + x[90,0] + x[91,0] >= 1
 (3)bonding-z-to-x[15,12,0]: - x[15,0] + z[15,12,0] <= 0
 (3)bonding-z-to-x[15,13,0]: - x[15,0] + z[15,13,0] <= 0
 (3)bonding-z-to-x[19,22,0]: - x[19,0] + z[19,22,0] <= 0
 (3)bonding-z-to-x[23,22,0]: - x[23,0] + z[23,22,0] <= 0
 (3)bonding-z-to-x[26,11,0]: - x[26,0] + z[26,11,0] <= 0
 (3)bonding-z-to-x[29,15,0]: - x[29,0] + z[29,15,0] <= 0
 (3)bonding-z-to-x[29,2,0]: - x[29,0] + z[29,2,0] <= 0
 (3)bonding-z-to-x[33,15,0]: - x[33,0] + z[33,15,0] <= 0
 (3)bonding-z-to-x[36,35,0]: - x[36,0] + z[36,35,0] <= 0
 (3)bonding-z-to-x[36,15,0]: - x[36,0] + z[36,15,0] <= 0
 (3)bonding-z-to-x[37,36,0]: - x[37,0] + z[37,36,0] <= 0
 (3)bonding-z-to-x[37,15,0]: - x[37,0] + z[37,15,0] <= 0
 (3)bonding-z-to-x[38,36,0]: - x[38,0] + z[38,36,0] <= 0
 (3)bonding-z-to-x[38,15,0]: - x[38,0] + z[38,15,0] <= 0
 (3)bonding-z-to-x[39,36,0]: - x[39,0] + z[39,36,0] <= 0
 (3)bonding-z-to-x[39,15,0]: - x[39,0] + z[39,15,0] <= 0
 (3)bonding-z-to-x[40,15,0]: - x[40,0] + z[40,15,0] <= 0
 (3)bonding-z-to-x[41,15,0]: - x[41,0] + z[41,15,0] <= 0
 (3)bonding-z-to-x[42,15,0]: - x[42,0] + z[42,15,0] <= 0
 (3)bonding-z-to-x[43,11,0]: - x[43,0] + z[43,11,0] <= 0
 (3)bonding-z-to-x[43,15,0]: - x[43,0] + z[43,15,0] <= 0
 (3)bonding-z-to-x[43,12,0]: - x[43,0] + z[43,12,0] <= 0
 (3)bonding-z-to-x[44,15,0]: - x[44,0] + z[44,15,0] <= 0
 (3)bonding-z-to-x[45,11,0]: - x[45,0] + z[45,11,0] <= 0
 (3)bonding-z-to-x[45,15,0]: - x[45,0] + z[45,15,0] <= 0
 (3)bonding-z-to-x[45,12,0]: - x[45,0] + z[45,12,0] <= 0
 (3)bonding-z-to-x[49,11,0]: - x[49,0] + z[49,11,0] <= 0
 (3)bonding-z-to-x[50,15,0]: - x[50,0] + z[50,15,0] <= 0
 (3)bonding-z-to-x[51,15,0]: - x[51,0] + z[51,15,0] <= 0
 (3)bonding-z-to-x[54,15,0]: - x[54,0] + z[54,15,0] <= 0
 (3)bonding-z-to-x[59,15,0]: - x[59,0] + z[59,15,0] <= 0
 (3)bonding-z-to-x[59,11,0]: - x[59,0] + z[59,11,0] <= 0
 (3)bonding-z-to-x[60,15,0]: - x[60,0] + z[60,15,0] <= 0
 (3)bonding-z-to-x[60,11,0]: - x[60,0] + z[60,11,0] <= 0
 (3)bonding-z-to-x[61,11,0]: - x[61,0] + z[61,11,0] <= 0
 (3)bonding-z-to-x[61,15,0]: - x[61,0] + z[61,15,0] <= 0
 (3)bonding-z-to-x[62,11,0]: - x[62,0] + z[62,11,0] <= 0
 (3)bonding-z-to-x[62,15,0]: - x[62,0] + z[62,15,0] <= 0
 (3)bonding-z-to-x[62,12,0]: - x[62,0] + z[62,12,0] <= 0
 (3)bonding-z-to-x[63,12,0]: - x[63,0] + z[63,12,0] <= 0
 (3)bonding-z-to-x[64,15,0]: - x[64,0] + z[64,15,0] <= 0
 (3)bonding-z-to-x[65,66,0]: - x[65,0] + z[65,66,0] <= 0
 (3)bonding-z-to-x[65,14,0]: - x[65,0] + z[65,14,0] <= 0
 (3)bonding-z-to-x[69,56,0]: - x[69,0] + z[69,56,0] <= 0
 (3)bonding-z-to-x[70,57,0]: - x[70,0] + z[70,57,0] <= 0
 (3)bonding-z-to-x[71,58,0]: - x[71,0] + z[71,58,0] <= 0
 (3)bonding-z-to-x[72,45,0]: - x[72,0] + z[72,45,0] <= 0
 (3)bonding-z-to-x[72,38,0]: - x[72,0] + z[72,38,0] <= 0
 (3)bonding-z-to-x[72,11,0]: - x[72,0] + z[72,11,0] <= 0
 (3)bonding-z-to-x[72,22,0]: - x[72,0] + z[72,22,0] <= 0
 (3)bonding-z-to-x[72,23,0]: - x[72,0] + z[72,23,0] <= 0
 (3)bonding-z-to-x[72,19,0]: - x[72,0] + z[72,19,0] <= 0
 (3)bonding-z-to-x[72,15,0]: - x[72,0] + z[72,15,0] <= 0
 (3)bonding-z-to-x[73,46,0]: - x[73,0] + z[73,46,0] <= 0
 (3)bonding-z-to-x[73,11,0]: - x[73,0] + z[73,11,0] <= 0
 (3)bonding-z-to-x[73,15,0]: - x[73,0] + z[73,15,0] <= 0
 (3)bonding-z-to-x[73,19,0]: - x[73,0] + z[73,19,0] <= 0
 (3)bonding-z-to-x[73,23,0]: - x[73,0] + z[73,23,0] <= 0
 (3)bonding-z-to-x[74,75,0]: - x[74,0] + z[74,75,0] <= 0
 (3)bonding-z-to-x[74,49,0]: - x[74,0] + z[74,49,0] <= 0
 (3)bonding-z-to-x[74,11,0]: - x[74,0] + z[74,11,0] <= 0
 (3)bonding-z-to-x[76,53,0]: - x[76,0] + z[76,53,0] <= 0
 (3)bonding-z-to-x[77,50,0]: - x[77,0] + z[77,50,0] <= 0
 (3)bonding-z-to-x[77,11,0]: - x[77,0] + z[77,11,0] <= 0
 (3)bonding-z-to-x[78,47,0]: - x[78,0] + z[78,47,0] <= 0
 (3)bonding-z-to-x[79,87,0]: - x[79,0] + z[79,87,0] <= 0
 (3)bonding-z-to-x[79,43,0]: - x[79,0] + z[79,43,0] <= 0
 (3)bonding-z-to-x[79,37,0]: - x[79,0] + z[79,37,0] <= 0
 (3)bonding-z-to-x[79,26,0]: - x[79,0] + z[79,26,0] <= 0
 (3)bonding-z-to-x[79,21,0]: - x[79,0] + z[79,21,0] <= 0
 (3)bonding-z-to-x[79,15,0]: - x[79,0] + z[79,15,0] <= 0
 (3)bonding-z-to-x[80,40,0]: - x[80,0] + z[80,40,0] <= 0
 (3)bonding-z-to-x[80,15,0]: - x[80,0] + z[80,15,0] <= 0
 (3)bonding-z-to-x[82,51,0]: - x[82,0] + z[82,51,0] <= 0
 (3)bonding-z-to-x[82,11,0]: - x[82,0] + z[82,11,0] <= 0
 (3)bonding-z-to-x[83,46,0]: - x[83,0] + z[83,46,0] <= 0
 (3)bonding-z-to-x[83,11,0]: - x[83,0] + z[83,11,0] <= 0
 (3)bonding-z-to-x[83,15,0]: - x[83,0] + z[83,15,0] <= 0
 (3)bonding-z-to-x[83,19,0]: - x[83,0] + z[83,19,0] <= 0
 (3)bonding-z-to-x[84,87,0]: - x[84,0] + z[84,87,0] <= 0
 (3)bonding-z-to-x[84,48,0]: - x[84,0] + z[84,48,0] <= 0
 (3)bonding-z-to-x[84,10,0]: - x[84,0] + z[84,10,0] <= 0
 (3)bonding-z-to-x[84,21,0]: - x[84,0] + z[84,21,0] <= 0
 (3)bonding-z-to-x[85,42,0]: - x[85,0] + z[85,42,0] <= 0
 (3)bonding-z-to-x[85,39,0]: - x[85,0] + z[85,39,0] <= 0
 (3)bonding-z-to-x[85,15,0]: - x[85,0] + z[85,15,0] <= 0
 (3)bonding-z-to-x[86,87,0]: - x[86,0] + z[86,87,0] <= 0
 (3)bonding-z-to-x[86,41,0]: - x[86,0] + z[86,41,0] <= 0
 (3)bonding-z-to-x[86,27,0]: - x[86,0] + z[86,27,0] <= 0
 (3)bonding-z-to-x[86,21,0]: - x[86,0] + z[86,21,0] <= 0
 (3)bonding-z-to-x[86,15,0]: - x[86,0] + z[86,15,0] <= 0
 (3)bonding-z-to-x[88,32,0]: - x[88,0] + z[88,32,0] <= 0
 (3)bonding-z-to-x[88,25,0]: - x[88,0] + z[88,25,0] <= 0
 (3)bonding-z-to-x[89,65,0]: - x[89,0] + z[89,65,0] <= 0
 (3)bonding-z-to-x[89,14,0]: - x[89,0] + z[89,14,0] <= 0
 (3)bonding-z-to-x[90,67,0]: - x[90,0] + z[90,67,0] <= 0
 (3)bonding-z-to-x[90,91,0]: - x[90,0] + z[90,91,0] <= 0
 (3)bonding-z-to-x[90,14,0]: - x[90,0] + z[90,14,0] <= 0
 (4)bonding-z-to-x[15,12,0]: - x[12,0] + z[15,12,0] <= 0
 (4)bonding-z-to-x[15,13,0]: - x[13,0] + z[15,13,0] <= 0
 (4)bonding-z-to-x[19,22,0]: - x[22,0] + z[19,22,0] <= 0
 (4)bonding-z-to-x[23,22,0]: - x[22,0] + z[23,22,0] <= 0
 (4)bonding-z-to-x[26,11,0]: - x[11,0] + z[26,11,0] <= 0
 (4)bonding-z-to-x[29,15,0]: - x[15,0] + z[29,15,0] <= 0
 (4)bonding-z-to-x[29,2,0]: - x[2,0] + z[29,2,0] <= 0
 (4)bonding-z-to-x[33,15,0]: - x[15,0] + z[33,15,0] <= 0
 (4)bonding-z-to-x[36,35,0]: - x[35,0] + z[36,35,0] <= 0
 (4)bonding-z-to-x[36,15,0]: - x[15,0] + z[36,15,0] <= 0
 (4)bonding-z-to-x[37,36,0]: - x[36,0] + z[37,36,0] <= 0
 (4)bonding-z-to-x[37,15,0]: - x[15,0] + z[37,15,0] <= 0
 (4)bonding-z-to-x[38,36,0]: - x[36,0] + z[38,36,0] <= 0
 (4)bonding-z-to-x[38,15,0]: - x[15,0] + z[38,15,0] <= 0
 (4)bonding-z-to-x[39,36,0]: - x[36,0] + z[39,36,0] <= 0
 (4)bonding-z-to-x[39,15,0]: - x[15,0] + z[39,15,0] <= 0
 (4)bonding-z-to-x[40,15,0]: - x[15,0] + z[40,15,0] <= 0
 (4)bonding-z-to-x[41,15,0]: - x[15,0] + z[41,15,0] <= 0
 (4)bonding-z-to-x[42,15,0]: - x[15,0] + z[42,15,0] <= 0
 (4)bonding-z-to-x[43,11,0]: - x[11,0] + z[43,11,0] <= 0
 (4)bonding-z-to-x[43,15,0]: - x[15,0] + z[43,15,0] <= 0
 (4)bonding-z-to-x[43,12,0]: - x[12,0] + z[43,12,0] <= 0
 (4)bonding-z-to-x[44,15,0]: - x[15,0] + z[44,15,0] <= 0
 (4)bonding-z-to-x[45,11,0]: - x[11,0] + z[45,11,0] <= 0
 (4)bonding-z-to-x[45,15,0]: - x[15,0] + z[45,15,0] <= 0
 (4)bonding-z-to-x[45,12,0]: - x[12,0] + z[45,12,0] <= 0
 (4)bonding-z-to-x[49,11,0]: - x[11,0] + z[49,11,0] <= 0
 (4)bonding-z-to-x[50,15,0]: - x[15,0] + z[50,15,0] <= 0
 (4)bonding-z-to-x[51,15,0]: - x[15,0] + z[51,15,0] <= 0
 (4)bonding-z-to-x[54,15,0]: - x[15,0] + z[54,15,0] <= 0
 (4)bonding-z-to-x[59,15,0]: - x[15,0] + z[59,15,0] <= 0
 (4)bonding-z-to-x[59,11,0]: - x[11,0] + z[59,11,0] <= 0
 (4)bonding-z-to-x[60,15,0]: - x[15,0] + z[60,15,0] <= 0
 (4)bonding-z-to-x[60,11,0]: - x[11,0] + z[60,11,0] <= 0
 (4)bonding-z-to-x[61,11,0]: - x[11,0] + z[61,11,0] <= 0
 (4)bonding-z-to-x[61,15,0]: - x[15,0] + z[61,15,0] <= 0
 (4)bonding-z-to-x[62,11,0]: - x[11,0] + z[62,11,0] <= 0
 (4)bonding-z-to-x[62,15,0]: - x[15,0] + z[62,15,0] <= 0
 (4)bonding-z-to-x[62,12,0]: - x[12,0] + z[62,12,0] <= 0
 (4)bonding-z-to-x[63,12,0]: - x[12,0] + z[63,12,0] <= 0
 (4)bonding-z-to-x[64,15,0]: - x[15,0] + z[64,15,0] <= 0
 (4)bonding-z-to-x[65,66,0]: - x[66,0] + z[65,66,0] <= 0
 (4)bonding-z-to-x[65,14,0]: - x[14,0] + z[65,14,0] <= 0
 (4)bonding-z-to-x[69,56,0]: - x[56,0] + z[69,56,0] <= 0
 (4)bonding-z-to-x[70,57,0]: - x[57,0] + z[70,57,0] <= 0
 (4)bonding-z-to-x[71,58,0]: - x[58,0] + z[71,58,0] <= 0
 (4)bonding-z-to-x[72,45,0]: - x[45,0] + z[72,45,0] <= 0
 (4)bonding-z-to-x[72,38,0]: - x[38,0] + z[72,38,0] <= 0
 (4)bonding-z-to-x[72,11,0]: - x[11,0] + z[72,11,0] <= 0
 (4)bonding-z-to-x[72,22,0]: - x[22,0] + z[72,22,0] <= 0
 (4)bonding-z-to-x[72,23,0]: - x[23,0] + z[72,23,0] <= 0
 (4)bonding-z-to-x[72,19,0]: - x[19,0] + z[72,19,0] <= 0
 (4)bonding-z-to-x[72,15,0]: - x[15,0] + z[72,15,0] <= 0
 (4)bonding-z-to-x[73,46,0]: - x[46,0] + z[73,46,0] <= 0
 (4)bonding-z-to-x[73,11,0]: - x[11,0] + z[73,11,0] <= 0
 (4)bonding-z-to-x[73,15,0]: - x[15,0] + z[73,15,0] <= 0
 (4)bonding-z-to-x[73,19,0]: - x[19,0] + z[73,19,0] <= 0
 (4)bonding-z-to-x[73,23,0]: - x[23,0] + z[73,23,0] <= 0
 (4)bonding-z-to-x[74,75,0]: - x[75,0] + z[74,75,0] <= 0
 (4)bonding-z-to-x[74,49,0]: - x[49,0] + z[74,49,0] <= 0
 (4)bonding-z-to-x[74,11,0]: - x[11,0] + z[74,11,0] <= 0
 (4)bonding-z-to-x[76,53,0]: - x[53,0] + z[76,53,0] <= 0
 (4)bonding-z-to-x[77,50,0]: - x[50,0] + z[77,50,0] <= 0
 (4)bonding-z-to-x[77,11,0]: - x[11,0] + z[77,11,0] <= 0
 (4)bonding-z-to-x[78,47,0]: - x[47,0] + z[78,47,0] <= 0
 (4)bonding-z-to-x[79,87,0]: - x[87,0] + z[79,87,0] <= 0
 (4)bonding-z-to-x[79,43,0]: - x[43,0] + z[79,43,0] <= 0
 (4)bonding-z-to-x[79,37,0]: - x[37,0] + z[79,37,0] <= 0
 (4)bonding-z-to-x[79,26,0]: - x[26,0] + z[79,26,0] <= 0
 (4)bonding-z-to-x[79,21,0]: - x[21,0] + z[79,21,0] <= 0
 (4)bonding-z-to-x[79,15,0]: - x[15,0] + z[79,15,0] <= 0
 (4)bonding-z-to-x[80,40,0]: - x[40,0] + z[80,40,0] <= 0
 (4)bonding-z-to-x[80,15,0]: - x[15,0] + z[80,15,0] <= 0
 (4)bonding-z-to-x[82,51,0]: - x[51,0] + z[82,51,0] <= 0
 (4)bonding-z-to-x[82,11,0]: - x[11,0] + z[82,11,0] <= 0
 (4)bonding-z-to-x[83,46,0]: - x[46,0] + z[83,46,0] <= 0
 (4)bonding-z-to-x[83,11,0]: - x[11,0] + z[83,11,0] <= 0
 (4)bonding-z-to-x[83,15,0]: - x[15,0] + z[83,15,0] <= 0
 (4)bonding-z-to-x[83,19,0]: - x[19,0] + z[83,19,0] <= 0
 (4)bonding-z-to-x[84,87,0]: - x[87,0] + z[84,87,0] <= 0
 (4)bonding-z-to-x[84,48,0]: - x[48,0] + z[84,48,0] <= 0
 (4)bonding-z-to-x[84,10,0]: - x[10,0] + z[84,10,0] <= 0
 (4)bonding-z-to-x[84,21,0]: - x[21,0] + z[84,21,0] <= 0
 (4)bonding-z-to-x[85,42,0]: - x[42,0] + z[85,42,0] <= 0
 (4)bonding-z-to-x[85,39,0]: - x[39,0] + z[85,39,0] <= 0
 (4)bonding-z-to-x[85,15,0]: - x[15,0] + z[85,15,0] <= 0
 (4)bonding-z-to-x[86,87,0]: - x[87,0] + z[86,87,0] <= 0
 (4)bonding-z-to-x[86,41,0]: - x[41,0] + z[86,41,0] <= 0
 (4)bonding-z-to-x[86,27,0]: - x[27,0] + z[86,27,0] <= 0
 (4)bonding-z-to-x[86,21,0]: - x[21,0] + z[86,21,0] <= 0
 (4)bonding-z-to-x[86,15,0]: - x[15,0] + z[86,15,0] <= 0
 (4)bonding-z-to-x[88,32,0]: - x[32,0] + z[88,32,0] <= 0
 (4)bonding-z-to-x[88,25,0]: - x[25,0] + z[88,25,0] <= 0
 (4)bonding-z-to-x[89,65,0]: - x[65,0] + z[89,65,0] <= 0
 (4)bonding-z-to-x[89,14,0]: - x[14,0] + z[89,14,0] <= 0
 (4)bonding-z-to-x[90,67,0]: - x[67,0] + z[90,67,0] <= 0
 (4)bonding-z-to-x[90,91,0]: - x[91,0] + z[90,91,0] <= 0
 (4)bonding-z-to-x[90,14,0]: - x[14,0] + z[90,14,0] <= 0
 (5)bonding-z-to-x[15,12,0]: x[12,0] + x[15,0] - z[15,12,0] <= 1
 (5)bonding-z-to-x[15,13,0]: x[13,0] + x[15,0] - z[15,13,0] <= 1
 (5)bonding-z-to-x[19,22,0]: x[19,0] + x[22,0] - z[19,22,0] <= 1
 (5)bonding-z-to-x[23,22,0]: x[22,0] + x[23,0] - z[23,22,0] <= 1
 (5)bonding-z-to-x[26,11,0]: x[11,0] + x[26,0] - z[26,11,0] <= 1
 (5)bonding-z-to-x[29,15,0]: x[15,0] + x[29,0] - z[29,15,0] <= 1
 (5)bonding-z-to-x[29,2,0]: x[2,0] + x[29,0] - z[29,2,0] <= 1
 (5)bonding-z-to-x[33,15,0]: x[15,0] + x[33,0] - z[33,15,0] <= 1
 (5)bonding-z-to-x[36,35,0]: x[35,0] + x[36,0] - z[36,35,0] <= 1
 (5)bonding-z-to-x[36,15,0]: x[15,0] + x[36,0] - z[36,15,0] <= 1
 (5)bonding-z-to-x[37,36,0]: x[36,0] + x[37,0] - z[37,36,0] <= 1
 (5)bonding-z-to-x[37,15,0]: x[15,0] + x[37,0] - z[37,15,0] <= 1
 (5)bonding-z-to-x[38,36,0]: x[36,0] + x[38,0] - z[38,36,0] <= 1
 (5)bonding-z-to-x[38,15,0]: x[15,0] + x[38,0] - z[38,15,0] <= 1
 (5)bonding-z-to-x[39,36,0]: x[36,0] + x[39,0] - z[39,36,0] <= 1
 (5)bonding-z-to-x[39,15,0]: x[15,0] + x[39,0] - z[39,15,0] <= 1
 (5)bonding-z-to-x[40,15,0]: x[15,0] + x[40,0] - z[40,15,0] <= 1
 (5)bonding-z-to-x[41,15,0]: x[15,0] + x[41,0] - z[41,15,0] <= 1
 (5)bonding-z-to-x[42,15,0]: x[15,0] + x[42,0] - z[42,15,0] <= 1
 (5)bonding-z-to-x[43,11,0]: x[11,0] + x[43,0] - z[43,11,0] <= 1
 (5)bonding-z-to-x[43,15,0]: x[15,0] + x[43,0] - z[43,15,0] <= 1
 (5)bonding-z-to-x[43,12,0]: x[12,0] + x[43,0] - z[43,12,0] <= 1
 (5)bonding-z-to-x[44,15,0]: x[15,0] + x[44,0] - z[44,15,0] <= 1
 (5)bonding-z-to-x[45,11,0]: x[11,0] + x[45,0] - z[45,11,0] <= 1
 (5)bonding-z-to-x[45,15,0]: x[15,0] + x[45,0] - z[45,15,0] <= 1
 (5)bonding-z-to-x[45,12,0]: x[12,0] + x[45,0] - z[45,12,0] <= 1
 (5)bonding-z-to-x[49,11,0]: x[11,0] + x[49,0] - z[49,11,0] <= 1
 (5)bonding-z-to-x[50,15,0]: x[15,0] + x[50,0] - z[50,15,0] <= 1
 (5)bonding-z-to-x[51,15,0]: x[15,0] + x[51,0] - z[51,15,0] <= 1
 (5)bonding-z-to-x[54,15,0]: x[15,0] + x[54,0] - z[54,15,0] <= 1
 (5)bonding-z-to-x[59,15,0]: x[15,0] + x[59,0] - z[59,15,0] <= 1
 (5)bonding-z-to-x[59,11,0]: x[11,0] + x[59,0] - z[59,11,0] <= 1
 (5)bonding-z-to-x[60,15,0]: x[15,0] + x[60,0] - z[60,15,0] <= 1
 (5)bonding-z-to-x[60,11,0]: x[11,0] + x[60,0] - z[60,11,0] <= 1
 (5)bonding-z-to-x[61,11,0]: x[11,0] + x[61,0] - z[61,11,0] <= 1
 (5)bonding-z-to-x[61,15,0]: x[15,0] + x[61,0] - z[61,15,0] <= 1
 (5)bonding-z-to-x[62,11,0]: x[11,0] + x[62,0] - z[62,11,0] <= 1
 (5)bonding-z-to-x[62,15,0]: x[15,0] + x[62,0] - z[62,15,0] <= 1
 (5)bonding-z-to-x[62,12,0]: x[12,0] + x[62,0] - z[62,12,0] <= 1
 (5)bonding-z-to-x[63,12,0]: x[12,0] + x[63,0] - z[63,12,0] <= 1
 (5)bonding-z-to-x[64,15,0]: x[15,0] + x[64,0] - z[64,15,0] <= 1
 (5)bonding-z-to-x[65,66,0]: x[65,0] + x[66,0] - z[65,66,0] <= 1
 (5)bonding-z-to-x[65,14,0]: x[14,0] + x[65,0] - z[65,14,0] <= 1
 (5)bonding-z-to-x[69,56,0]: x[56,0] + x[69,0] - z[69,56,0] <= 1
 (5)bonding-z-to-x[70,57,0]: x[57,0] + x[70,0] - z[70,57,0] <= 1
 (5)bonding-z-to-x[71,58,0]: x[58,0] + x[71,0] - z[71,58,0] <= 1
 (5)bonding-z-to-x[72,45,0]: x[45,0] + x[72,0] - z[72,45,0] <= 1
 (5)bonding-z-to-x[72,38,0]: x[38,0] + x[72,0] - z[72,38,0] <= 1
 (5)bonding-z-to-x[72,11,0]: x[11,0] + x[72,0] - z[72,11,0] <= 1
 (5)bonding-z-to-x[72,22,0]: x[22,0] + x[72,0] - z[72,22,0] <= 1
 (5)bonding-z-to-x[72,23,0]: x[23,0] + x[72,0] - z[72,23,0] <= 1
 (5)bonding-z-to-x[72,19,0]: x[19,0] + x[72,0] - z[72,19,0] <= 1
 (5)bonding-z-to-x[72,15,0]: x[15,0] + x[72,0] - z[72,15,0] <= 1
 (5)bonding-z-to-x[73,46,0]: x[46,0] + x[73,0] - z[73,46,0] <= 1
 (5)bonding-z-to-x[73,11,0]: x[11,0] + x[73,0] - z[73,11,0] <= 1
 (5)bonding-z-to-x[73,15,0]: x[15,0] + x[73,0] - z[73,15,0] <= 1
 (5)bonding-z-to-x[73,19,0]: x[19,0] + x[73,0] - z[73,19,0] <= 1
 (5)bonding-z-to-x[73,23,0]: x[23,0] + x[73,0] - z[73,23,0] <= 1
 (5)bonding-z-to-x[74,75,0]: x[74,0] + x[75,0] - z[74,75,0] <= 1
 (5)bonding-z-to-x[74,49,0]: x[49,0] + x[74,0] - z[74,49,0] <= 1
 (5)bonding-z-to-x[74,11,0]: x[11,0] + x[74,0] - z[74,11,0] <= 1
 (5)bonding-z-to-x[76,53,0]: x[53,0] + x[76,0] - z[76,53,0] <= 1
 (5)bonding-z-to-x[77,50,0]: x[50,0] + x[77,0] - z[77,50,0] <= 1
 (5)bonding-z-to-x[77,11,0]: x[11,0] + x[77,0] - z[77,11,0] <= 1
 (5)bonding-z-to-x[78,47,0]: x[47,0] + x[78,0] - z[78,47,0] <= 1
 (5)bonding-z-to-x[79,87,0]: x[79,0] + x[87,0] - z[79,87,0] <= 1
 (5)bonding-z-to-x[79,43,0]: x[43,0] + x[79,0] - z[79,43,0] <= 1
 (5)bonding-z-to-x[79,37,0]: x[37,0] + x[79,0] - z[79,37,0] <= 1
 (5)bonding-z-to-x[79,26,0]: x[26,0] + x[79,0] - z[79,26,0] <= 1
 (5)bonding-z-to-x[79,21,0]: x[21,0] + x[79,0] - z[79,21,0] <= 1
 (5)bonding-z-to-x[79,15,0]: x[15,0] + x[79,0] - z[79,15,0] <= 1
 (5)bonding-z-to-x[80,40,0]: x[40,0] + x[80,0] - z[80,40,0] <= 1
 (5)bonding-z-to-x[80,15,0]: x[15,0] + x[80,0] - z[80,15,0] <= 1
 (5)bonding-z-to-x[82,51,0]: x[51,0] + x[82,0] - z[82,51,0] <= 1
 (5)bonding-z-to-x[82,11,0]: x[11,0] + x[82,0] - z[82,11,0] <= 1
 (5)bonding-z-to-x[83,46,0]: x[46,0] + x[83,0] - z[83,46,0] <= 1
 (5)bonding-z-to-x[83,11,0]: x[11,0] + x[83,0] - z[83,11,0] <= 1
 (5)bonding-z-to-x[83,15,0]: x[15,0] + x[83,0] - z[83,15,0] <= 1
 (5)bonding-z-to-x[83,19,0]: x[19,0] + x[83,0] - z[83,19,0] <= 1
 (5)bonding-z-to-x[84,87,0]: x[84,0] + x[87,0] - z[84,87,0] <= 1
 (5)bonding-z-to-x[84,48,0]: x[48,0] + x[84,0] - z[84,48,0] <= 1
 (5)bonding-z-to-x[84,10,0]: x[10,0] + x[84,0] - z[84,10,0] <= 1
 (5)bonding-z-to-x[84,21,0]: x[21,0] + x[84,0] - z[84,21,0] <= 1
 (5)bonding-z-to-x[85,42,0]: x[42,0] + x[85,0] - z[85,42,0] <= 1
 (5)bonding-z-to-x[85,39,0]: x[39,0] + x[85,0] - z[85,39,0] <= 1
 (5)bonding-z-to-x[85,15,0]: x[15,0] + x[85,0] - z[85,15,0] <= 1
 (5)bonding-z-to-x[86,87,0]: x[86,0] + x[87,0] - z[86,87,0] <= 1
 (5)bonding-z-to-x[86,41,0]: x[41,0] + x[86,0] - z[86,41,0] <= 1
 (5)bonding-z-to-x[86,27,0]: x[27,0] + x[86,0] - z[86,27,0] <= 1
 (5)bonding-z-to-x[86,21,0]: x[21,0] + x[86,0] - z[86,21,0] <= 1
 (5)bonding-z-to-x[86,15,0]: x[15,0] + x[86,0] - z[86,15,0] <= 1
 (5)bonding-z-to-x[88,32,0]: x[32,0] + x[88,0] - z[88,32,0] <= 1
 (5)bonding-z-to-x[88,25,0]: x[25,0] + x[88,0] - z[88,25,0] <= 1
 (5)bonding-z-to-x[89,65,0]: x[65,0] + x[89,0] - z[89,65,0] <= 1
 (5)bonding-z-to-x[89,14,0]: x[14,0] + x[89,0] - z[89,14,0] <= 1
 (5)bonding-z-to-x[90,67,0]: x[67,0] + x[90,0] - z[90,67,0] <= 1
 (5)bonding-z-to-x[90,91,0]: x[90,0] + x[91,0] - z[90,91,0] <= 1
 (5)bonding-z-to-x[90,14,0]: x[14,0] + x[90,0] - z[90,14,0] <= 1
 (6)bonding-y-to-z[15,12]: - z[15,12,0] + y[15,12] = 0
 (6)bonding-y-to-z[15,13]: - z[15,13,0] + y[15,13] = 0
 (6)bonding-y-to-z[19,22]: - z[19,22,0] + y[19,22] = 0
 (6)bonding-y-to-z[23,22]: - z[23,22,0] + y[23,22] = 0
 (6)bonding-y-to-z[26,11]: - z[26,11,0] + y[26,11] = 0
 (6)bonding-y-to-z[29,15]: - z[29,15,0] + y[29,15] = 0
 (6)bonding-y-to-z[29,2]: - z[29,2,0] + y[29,2] = 0
 (6)bonding-y-to-z[33,15]: - z[33,15,0] + y[33,15] = 0
 (6)bonding-y-to-z[36,35]: - z[36,35,0] + y[36,35] = 0
 (6)bonding-y-to-z[36,15]: - z[36,15,0] + y[36,15] = 0
 (6)bonding-y-to-z[37,36]: - z[37,36,0] + y[37,36] = 0
 (6)bonding-y-to-z[37,15]: - z[37,15,0] + y[37,15] = 0
 (6)bonding-y-to-z[38,36]: - z[38,36,0] + y[38,36] = 0
 (6)bonding-y-to-z[38,15]: - z[38,15,0] + y[38,15] = 0
 (6)bonding-y-to-z[39,36]: - z[39,36,0] + y[39,36] = 0
 (6)bonding-y-to-z[39,15]: - z[39,15,0] + y[39,15] = 0
 (6)bonding-y-to-z[40,15]: - z[40,15,0] + y[40,15] = 0
 (6)bonding-y-to-z[41,15]: - z[41,15,0] + y[41,15] = 0
 (6)bonding-y-to-z[42,15]: - z[42,15,0] + y[42,15] = 0
 (6)bonding-y-to-z[43,11]: - z[43,11,0] + y[43,11] = 0
 (6)bonding-y-to-z[43,15]: - z[43,15,0] + y[43,15] = 0
 (6)bonding-y-to-z[43,12]: - z[43,12,0] + y[43,12] = 0
 (6)bonding-y-to-z[44,15]: - z[44,15,0] + y[44,15] = 0
 (6)bonding-y-to-z[45,11]: - z[45,11,0] + y[45,11] = 0
 (6)bonding-y-to-z[45,15]: - z[45,15,0] + y[45,15] = 0
 (6)bonding-y-to-z[45,12]: - z[45,12,0] + y[45,12] = 0
 (6)bonding-y-to-z[49,11]: - z[49,11,0] + y[49,11] = 0
 (6)bonding-y-to-z[50,15]: - z[50,15,0] + y[50,15] = 0
 (6)bonding-y-to-z[51,15]: - z[51,15,0] + y[51,15] = 0
 (6)bonding-y-to-z[54,15]: - z[54,15,0] + y[54,15] = 0
 (6)bonding-y-to-z[59,15]: - z[59,15,0] + y[59,15] = 0
 (6)bonding-y-to-z[59,11]: - z[59,11,0] + y[59,11] = 0
 (6)bonding-y-to-z[60,15]: - z[60,15,0] + y[60,15] = 0
 (6)bonding-y-to-z[60,11]: - z[60,11,0] + y[60,11] = 0
 (6)bonding-y-to-z[61,11]: - z[61,11,0] + y[61,11] = 0
 (6)bonding-y-to-z[61,15]: - z[61,15,0] + y[61,15] = 0
 (6)bonding-y-to-z[62,11]: - z[62,11,0] + y[62,11] = 0
 (6)bonding-y-to-z[62,15]: - z[62,15,0] + y[62,15] = 0
 (6)bonding-y-to-z[62,12]: - z[62,12,0] + y[62,12] = 0
 (6)bonding-y-to-z[63,12]: - z[63,12,0] + y[63,12] = 0
 (6)bonding-y-to-z[64,15]: - z[64,15,0] + y[64,15] = 0
 (6)bonding-y-to-z[65,66]: - z[65,66,0] + y[65,66] = 0
 (6)bonding-y-to-z[65,14]: - z[65,14,0] + y[65,14] = 0
 (6)bonding-y-to-z[69,56]: - z[69,56,0] + y[69,56] = 0
 (6)bonding-y-to-z[70,57]: - z[70,57,0] + y[70,57] = 0
 (6)bonding-y-to-z[71,58]: - z[71,58,0] + y[71,58] = 0
 (6)bonding-y-to-z[72,45]: - z[72,45,0] + y[72,45] = 0
 (6)bonding-y-to-z[72,38]: - z[72,38,0] + y[72,38] = 0
 (6)bonding-y-to-z[72,11]: - z[72,11,0] + y[72,11] = 0
 (6)bonding-y-to-z[72,22]: - z[72,22,0] + y[72,22] = 0
 (6)bonding-y-to-z[72,23]: - z[72,23,0] + y[72,23] = 0
 (6)bonding-y-to-z[72,19]: - z[72,19,0] + y[72,19] = 0
 (6)bonding-y-to-z[72,15]: - z[72,15,0] + y[72,15] = 0
 (6)bonding-y-to-z[73,46]: - z[73,46,0] + y[73,46] = 0
 (6)bonding-y-to-z[73,11]: - z[73,11,0] + y[73,11] = 0
 (6)bonding-y-to-z[73,15]: - z[73,15,0] + y[73,15] = 0
 (6)bonding-y-to-z[73,19]: - z[73,19,0] + y[73,19] = 0
 (6)bonding-y-to-z[73,23]: - z[73,23,0] + y[73,23] = 0
 (6)bonding-y-to-z[74,75]: - z[74,75,0] + y[74,75] = 0
 (6)bonding-y-to-z[74,49]: - z[74,49,0] + y[74,49] = 0
 (6)bonding-y-to-z[74,11]: - z[74,11,0] + y[74,11] = 0
 (6)bonding-y-to-z[76,53]: - z[76,53,0] + y[76,53] = 0
 (6)bonding-y-to-z[77,50]: - z[77,50,0] + y[77,50] = 0
 (6)bonding-y-to-z[77,11]: - z[77,11,0] + y[77,11] = 0
 (6)bonding-y-to-z[78,47]: - z[78,47,0] + y[78,47] = 0
 (6)bonding-y-to-z[79,87]: - z[79,87,0] + y[79,87] = 0
 (6)bonding-y-to-z[79,43]: - z[79,43,0] + y[79,43] = 0
 (6)bonding-y-to-z[79,37]: - z[79,37,0] + y[79,37] = 0
 (6)bonding-y-to-z[79,26]: - z[79,26,0] + y[79,26] = 0
 (6)bonding-y-to-z[79,21]: - z[79,21,0] + y[79,21] = 0
 (6)bonding-y-to-z[79,15]: - z[79,15,0] + y[79,15] = 0
 (6)bonding-y-to-z[80,40]: - z[80,40,0] + y[80,40] = 0
 (6)bonding-y-to-z[80,15]: - z[80,15,0] + y[80,15] = 0
 (6)bonding-y-to-z[82,51]: - z[82,51,0] + y[82,51] = 0
 (6)bonding-y-to-z[82,11]: - z[82,11,0] + y[82,11] = 0
 (6)bonding-y-to-z[83,46]: - z[83,46,0] + y[83,46] = 0
 (6)bonding-y-to-z[83,11]: - z[83,11,0] + y[83,11] = 0
 (6)bonding-y-to-z[83,15]: - z[83,15,0] + y[83,15] = 0
 (6)bonding-y-to-z[83,19]: - z[83,19,0] + y[83,19] = 0
 (6)bonding-y-to-z[84,87]: - z[84,87,0] + y[84,87] = 0
 (6)bonding-y-to-z[84,48]: - z[84,48,0] + y[84,48] = 0
 (6)bonding-y-to-z[84,10]: - z[84,10,0] + y[84,10] = 0
 (6)bonding-y-to-z[84,21]: - z[84,21,0] + y[84,21] = 0
 (6)bonding-y-to-z[85,42]: - z[85,42,0] + y[85,42] = 0
 (6)bonding-y-to-z[85,39]: - z[85,39,0] + y[85,39] = 0
 (6)bonding-y-to-z[85,15]: - z[85,15,0] + y[85,15] = 0
 (6)bonding-y-to-z[86,87]: - z[86,87,0] + y[86,87] = 0
 (6)bonding-y-to-z[86,41]: - z[86,41,0] + y[86,41] = 0
 (6)bonding-y-to-z[86,27]: - z[86,27,0] + y[86,27] = 0
 (6)bonding-y-to-z[86,21]: - z[86,21,0] + y[86,21] = 0
 (6)bonding-y-to-z[86,15]: - z[86,15,0] + y[86,15] = 0
 (6)bonding-y-to-z[88,32]: - z[88,32,0] + y[88,32] = 0
 (6)bonding-y-to-z[88,25]: - z[88,25,0] + y[88,25] = 0
 (6)bonding-y-to-z[89,65]: - z[89,65,0] + y[89,65] = 0
 (6)bonding-y-to-z[89,14]: - z[89,14,0] + y[89,14] = 0
 (6)bonding-y-to-z[90,67]: - z[90,67,0] + y[90,67] = 0
 (6)bonding-y-to-z[90,91]: - z[90,91,0] + y[90,91] = 0
 (6)bonding-y-to-z[90,14]: - z[90,14,0] + y[90,14] = 0
 (7)bonding-x-to-entity-clusters[0,14]: x[14,0] = 1
 (8)bonding-y-to-communities[15,13]: y[15,13] = 1
 (8)bonding-y-to-communities[19,22]: y[19,22] = 1
 (8)bonding-y-to-communities[23,22]: y[23,22] = 1
 (8)bonding-y-to-communities[29,15]: y[29,15] = 1
 (8)bonding-y-to-communities[29,2]: y[29,2] = 1
 (8)bonding-y-to-communities[33,15]: y[33,15] = 1
 (8)bonding-y-to-communities[36,35]: y[36,35] = 1
 (8)bonding-y-to-communities[36,15]: y[36,15] = 1
 (8)bonding-y-to-communities[37,36]: y[37,36] = 1
 (8)bonding-y-to-communities[37,15]: y[37,15] = 1
 (8)bonding-y-to-communities[38,36]: y[38,36] = 1
 (8)bonding-y-to-communities[38,15]: y[38,15] = 1
 (8)bonding-y-to-communities[39,36]: y[39,36] = 1
 (8)bonding-y-to-communities[39,15]: y[39,15] = 1
 (8)bonding-y-to-communities[40,15]: y[40,15] = 1
 (8)bonding-y-to-communities[42,15]: y[42,15] = 1
 (8)bonding-y-to-communities[44,15]: y[44,15] = 1
 (8)bonding-y-to-communities[49,11]: y[49,11] = 1
 (8)bonding-y-to-communities[54,15]: y[54,15] = 1
 (8)bonding-y-to-communities[59,11]: y[59,11] = 1
 (8)bonding-y-to-communities[60,11]: y[60,11] = 1
 (8)bonding-y-to-communities[61,11]: y[61,11] = 1
 (8)bonding-y-to-communities[62,12]: y[62,12] = 1
 (8)bonding-y-to-communities[63,12]: y[63,12] = 1
 (8)bonding-y-to-communities[64,15]: y[64,15] = 1
 (8)bonding-y-to-communities[65,66]: y[65,66] = 1
 (8)bonding-y-to-communities[65,14]: y[65,14] = 1
 (8)bonding-y-to-communities[69,56]: y[69,56] = 1
 (8)bonding-y-to-communities[70,57]: y[70,57] = 1
 (8)bonding-y-to-communities[71,58]: y[71,58] = 1
 (8)bonding-y-to-communities[72,45]: y[72,45] = 1
 (8)bonding-y-to-communities[72,22]: y[72,22] = 1
 (8)bonding-y-to-communities[72,23]: y[72,23] = 1
 (8)bonding-y-to-communities[72,19]: y[72,19] = 1
 (8)bonding-y-to-communities[73,46]: y[73,46] = 1
 (8)bonding-y-to-communities[73,19]: y[73,19] = 1
 (8)bonding-y-to-communities[73,23]: y[73,23] = 1
 (8)bonding-y-to-communities[74,75]: y[74,75] = 1
 (8)bonding-y-to-communities[74,49]: y[74,49] = 1
 (8)bonding-y-to-communities[74,11]: y[74,11] = 1
 (8)bonding-y-to-communities[76,53]: y[76,53] = 1
 (8)bonding-y-to-communities[77,50]: y[77,50] = 1
 (8)bonding-y-to-communities[77,11]: y[77,11] = 1
 (8)bonding-y-to-communities[78,47]: y[78,47] = 1
 (8)bonding-y-to-communities[79,87]: y[79,87] = 1
 (8)bonding-y-to-communities[79,43]: y[79,43] = 1
 (8)bonding-y-to-communities[79,26]: y[79,26] = 1
 (8)bonding-y-to-communities[79,21]: y[79,21] = 1
 (8)bonding-y-to-communities[80,40]: y[80,40] = 1
 (8)bonding-y-to-communities[80,15]: y[80,15] = 1
 (8)bonding-y-to-communities[82,51]: y[82,51] = 1
 (8)bonding-y-to-communities[82,11]: y[82,11] = 1
 (8)bonding-y-to-communities[83,46]: y[83,46] = 1
 (8)bonding-y-to-communities[83,19]: y[83,19] = 1
 (8)bonding-y-to-communities[84,87]: y[84,87] = 1
 (8)bonding-y-to-communities[84,48]: y[84,48] = 1
 (8)bonding-y-to-communities[84,10]: y[84,10] = 1
 (8)bonding-y-to-communities[84,21]: y[84,21] = 1
 (8)bonding-y-to-communities[85,42]: y[85,42] = 1
 (8)bonding-y-to-communities[85,39]: y[85,39] = 1
 (8)bonding-y-to-communities[85,15]: y[85,15] = 1
 (8)bonding-y-to-communities[86,87]: y[86,87] = 1
 (8)bonding-y-to-communities[86,41]: y[86,41] = 1
 (8)bonding-y-to-communities[86,27]: y[86,27] = 1
 (8)bonding-y-to-communities[86,21]: y[86,21] = 1
 (8)bonding-y-to-communities[88,32]: y[88,32] = 1
 (8)bonding-y-to-communities[88,25]: y[88,25] = 1
 (8)bonding-y-to-communities[89,65]: y[89,65] = 1
 (8)bonding-y-to-communities[89,14]: y[89,14] = 1
 (8)bonding-y-to-communities[90,67]: y[90,67] = 1
 (8)bonding-y-to-communities[90,91]: y[90,91] = 1
 (8)bonding-y-to-communities[90,14]: y[90,14] = 1
Bounds
 Constant = 1
Binaries
 x[2,0] x[10,0] x[11,0] x[12,0] x[13,0] x[14,0] x[15,0] x[19,0] x[21,0]
 x[22,0] x[23,0] x[25,0] x[26,0] x[27,0] x[29,0] x[32,0] x[33,0] x[35,0]
 x[36,0] x[37,0] x[38,0] x[39,0] x[40,0] x[41,0] x[42,0] x[43,0] x[44,0]
 x[45,0] x[46,0] x[47,0] x[48,0] x[49,0] x[50,0] x[51,0] x[53,0] x[54,0]
 x[56,0] x[57,0] x[58,0] x[59,0] x[60,0] x[61,0] x[62,0] x[63,0] x[64,0]
 x[65,0] x[66,0] x[67,0] x[69,0] x[70,0] x[71,0] x[72,0] x[73,0] x[74,0]
 x[75,0] x[76,0] x[77,0] x[78,0] x[79,0] x[80,0] x[82,0] x[83,0] x[84,0]
 x[85,0] x[86,0] x[87,0] x[88,0] x[89,0] x[90,0] x[91,0] z[15,12,0]
 z[15,13,0] z[19,22,0] z[23,22,0] z[26,11,0] z[29,15,0] z[29,2,0]
 z[33,15,0] z[36,35,0] z[36,15,0] z[37,36,0] z[37,15,0] z[38,36,0]
 z[38,15,0] z[39,36,0] z[39,15,0] z[40,15,0] z[41,15,0] z[42,15,0]
 z[43,11,0] z[43,15,0] z[43,12,0] z[44,15,0] z[45,11,0] z[45,15,0]
 z[45,12,0] z[49,11,0] z[50,15,0] z[51,15,0] z[54,15,0] z[59,15,0]
 z[59,11,0] z[60,15,0] z[60,11,0] z[61,11,0] z[61,15,0] z[62,11,0]
 z[62,15,0] z[62,12,0] z[63,12,0] z[64,15,0] z[65,66,0] z[65,14,0]
 z[69,56,0] z[70,57,0] z[71,58,0] z[72,45,0] z[72,38,0] z[72,11,0]
 z[72,22,0] z[72,23,0] z[72,19,0] z[72,15,0] z[73,46,0] z[73,11,0]
 z[73,15,0] z[73,19,0] z[73,23,0] z[74,75,0] z[74,49,0] z[74,11,0]
 z[76,53,0] z[77,50,0] z[77,11,0] z[78,47,0] z[79,87,0] z[79,43,0]
 z[79,37,0] z[79,26,0] z[79,21,0] z[79,15,0] z[80,40,0] z[80,15,0]
 z[82,51,0] z[82,11,0] z[83,46,0] z[83,11,0] z[83,15,0] z[83,19,0]
 z[84,87,0] z[84,48,0] z[84,10,0] z[84,21,0] z[85,42,0] z[85,39,0]
 z[85,15,0] z[86,87,0] z[86,41,0] z[86,27,0] z[86,21,0] z[86,15,0]
 z[88,32,0] z[88,25,0] z[89,65,0] z[89,14,0] z[90,67,0] z[90,91,0]
 z[90,14,0] y[15,12] y[15,13] y[19,22] y[23,22] y[26,11] y[29,15] y[29,2]
 y[33,15] y[36,35] y[36,15] y[37,36] y[37,15] y[38,36] y[38,15] y[39,36]
 y[39,15] y[40,15] y[41,15] y[42,15] y[43,11] y[43,15] y[43,12] y[44,15]
 y[45,11] y[45,15] y[45,12] y[49,11] y[50,15] y[51,15] y[54,15] y[59,15]
 y[59,11] y[60,15] y[60,11] y[61,11] y[61,15] y[62,11] y[62,15] y[62,12]
 y[63,12] y[64,15] y[65,66] y[65,14] y[69,56] y[70,57] y[71,58] y[72,45]
 y[72,38] y[72,11] y[72,22] y[72,23] y[72,19] y[72,15] y[73,46] y[73,11]
 y[73,15] y[73,19] y[73,23] y[74,75] y[74,49] y[74,11] y[76,53] y[77,50]
 y[77,11] y[78,47] y[79,87] y[79,43] y[79,37] y[79,26] y[79,21] y[79,15]
 y[80,40] y[80,15] y[82,51] y[82,11] y[83,46] y[83,11] y[83,15] y[83,19]
 y[84,87] y[84,48] y[84,10] y[84,21] y[85,42] y[85,39] y[85,15] y[86,87]
 y[86,41] y[86,27] y[86,21] y[86,15] y[88,32] y[88,25] y[89,65] y[89,14]
 y[90,67] y[90,91] y[90,14]
End
